;; sequence(s): A144555
;; terms: 0 14 56 126 224 350 504 686 896 1134 1400 1694 2016 2366 2744 3150 3584 4046 4536 5054
;; small program: (loop(x * x, 2, 2) - 2) * (x * x)
;; fast program: 2 * ((1 + (2 + (2 + 2))) * (x * x))
(set-logic UFNIA)
(declare-fun f0 (Int) Int)
(declare-fun g0 () Int)
(declare-fun h0 () Int)
(declare-fun u0 (Int Int) Int)
(declare-fun v0 () Int)
(declare-fun small (Int) Int)
(declare-fun fast (Int) Int)
(assert (forall ((x Int)) (= (f0 x) (* x x))))
(assert (= g0 2))
(assert (= h0 2))
(assert (forall ((x Int) (y Int)) (= (u0 x y) (ite (<= x 0) y (f0 (u0 (- x 1) y))))))
(assert (= v0 (u0 g0 h0)))
(assert (forall ((x Int)) (= (small x) (* (- v0 2) (* x x)))))
(assert (forall ((x Int)) (= (fast x) (* 2 (* (+ 1 (+ 2 (+ 2 2))) (* x x))))))
(assert (exists ((c Int)) (and (>= c 0) (not (= (small c) (fast c))))))
(check-sat)
